
Gurobi 6.0.4 (win64) logging started 06/12/15 17:24:26

Read LP format model from file E:\Eigene Dateien\Downloads\Michi shit\VRPTWMS-master\VRPTWMS\instances\mip\fuel\N8-C_DV100-C_SV25_F5_2_No_1.lp
Reading time = 0.01 seconds
(null): 417 rows, 208 columns, 1715 nonzeros
Optimize a model with 417 rows, 208 columns and 1715 nonzeros
Model has 576 quadratic constraints
WARNING: Only barrier available for SOCP models
Coefficient statistics:
  Matrix range    [1e+00, 1e+02]
  Objective range [2e+00, 1e+03]
  Bounds range    [1e+00, 1e+02]
  RHS range       [1e+00, 1e+02]
Presolve removed 56 rows and 33 columns
Presolve time: 0.02s
Presolved: 1169 rows, 598 columns, 5748 nonzeros
Variable types: 385 continuous, 213 integer (170 binary)
Found heuristic solution: objective 8314.6800000
Optimize a model with 1169 rows, 598 columns and 5748 nonzeros
Coefficient statistics:
  Matrix range    [6e-01, 1e+02]
  Objective range [2e+00, 1e+03]
  Bounds range    [1e+00, 1e+02]
  RHS range       [1e+00, 1e+02]

Concurrent LP optimizer: dual simplex and barrier
Showing barrier log only...

Presolve removed 136 rows and 84 columns
Presolved: 1033 rows, 515 columns, 5127 nonzeros

Root barrier log...

Ordering time: 0.02s

Barrier performed 0 iterations in 0.05 seconds
Barrier solve interrupted - model solved by another algorithm


Solved with dual simplex
Solved in 32 iterations and 0.05 seconds
Optimal objective  2.164194800e+03

Root relaxation: objective 2.164195e+03, 32 iterations, 0.02 seconds

    Nodes    |    Current Node    |     Objective Bounds      |     Work
 Expl Unexpl |  Obj  Depth IntInf | Incumbent    BestBd   Gap | It/Node Time

     0     0 2164.19480    0   10 8314.68000 2164.19480  74.0%     -    0s
H    0     0                    5226.8800000 2164.19480  58.6%     -    0s
     0     0 2167.24943    0   12 5226.88000 2167.24943  58.5%     -    0s
     0     0 2170.14500    0   12 5226.88000 2170.14500  58.5%     -    0s
     0     0 2172.38250    0   16 5226.88000 2172.38250  58.4%     -    0s
H    0     0                    4226.7400000 2172.38250  48.6%     -    0s
     0     0 2173.90272    0   21 4226.74000 2173.90272  48.6%     -    0s
     0     0 2173.92500    0   22 4226.74000 2173.92500  48.6%     -    0s
     0     0 2173.92500    0   23 4226.74000 2173.92500  48.6%     -    0s
     0     0 2173.92500    0   23 4226.74000 2173.92500  48.6%     -    0s
     0     2 2173.92500    0   22 4226.74000 2173.92500  48.6%     -    0s
H  297   188                    3316.0300000 2188.61907  34.0%  19.8    0s
H  344   215                    3267.9800000 2189.00480  33.0%  20.1    0s
H  928   445                    3265.1000000 2202.06000  32.6%  19.6    0s
H 1327   589                    3265.0800000 2208.94400  32.3%  20.2    0s
H 1521   641                    3252.9600000 2213.30964  32.0%  20.2    0s
H 1683   683                    3240.5500000 2214.89500  31.7%  20.1    0s
H 4320   924                    3238.1100000 2219.08355  31.5%  23.1    1s
H 4997   957                    3238.1000000 2219.08355  31.5%  24.9    2s

Cutting planes:
  Learned: 1
  Gomory: 2
  Cover: 3
  Implied bound: 1
  Clique: 1
  MIR: 4

Explored 9838 nodes (333622 simplex iterations) in 4.47 seconds
Thread count was 4 (of 4 available processors)

Optimal solution found (tolerance 1.00e-04)
Best objective 3.238100000000e+03, best bound 3.238100000000e+03, gap 0.0%
k_c1	1.0
k_c2	94.99999999999994
k_c3	100.0
k_c4	6.0
k_c5	100.0
k_c6	98.99999999999994
k_c7	96.0
k_c8	9.999999999999993
k_dN	-0.0
o_1	0.0
o_2	1.0
o_3	-0.0
o_4	-0.0
o_5	-0.0
o_6	-0.0
o_7	1.0000000000000007
o_8	-0.0
p_1	0.0
p_2	1.0
p_3	0.0
p_4	0.0
p_5	0.0
p_6	0.0
p_7	1.0
p_8	0.0
phi_c1	3.0
phi_c2	-0.0
phi_c3	3.0
phi_c4	2.0
phi_c5	1.0
phi_c6	1.0
phi_c7	0.0
phi_c8	4.0
phi_dN	-0.0
pi_c1	-0.0
pi_c2	5.0
pi_c3	-0.0
pi_c4	-0.0
pi_c5	-0.0
pi_c6	-0.0
pi_c7	10.0
pi_c8	-0.0
pi_dN	-0.0
tauD_c1	79.0
tauD_c2	57.000000000000014
tauD_c3	7.0
tauD_c4	65.0
tauD_c5	10.0
tauD_c6	30.0
tauD_c7	22.0
tauD_c8	45.00000000000001
tauD_d0	-0.0
tauD_dN	100.0
tauS_c1	86.0
tauS_c2	41.0
tauS_c3	85.0
tauS_c4	85.0
tauS_c5	6.0
tauS_c6	-0.0
tauS_c7	5.0
tauS_c8	83.0
tauS_d0	-0.0
tauS_dN	74.0
x_c1_dN	1.0
x_c2_c1	1.0
x_c3_c6	1.0
x_c4_dN	1.0
x_c5_c7	1.0
x_c6_c2	1.0
x_c7_c8	1.0
x_c8_c4	1.0
x_d0_c3	1.0
x_d0_c5	1.0
z_c2_dN	1.0
z_c7_c2	1.0
z_d0_c7	1.0
